32      4       
17      18      14      12      
0       0       0       0       0       11      2       3       4       5       7       8       9       12      13      14      17      
8       3       18      14      2       5       31      26      19      15      6       
7       17      18      9       12      5       25      18      16      15      11      
1       13      18      14      12      3       18      15      10      
8       12      18      14      10      3       23      16      15      
6       16      18      14      12      3       25      22      21      
1       17      18      9       12      2       23      15      
1       17      17      11      12      2       23      15      
6       12      16      14      12      2       24      15      
1       17      18      14      12      4       30      28      25      24      
3       17      18      14      12      3       30      24      20      
5       17      11      14      12      3       30      24      20      
2       17      14      14      12      4       30      29      27      26      
3       17      18      14      12      3       30      28      23      
10      17      18      14      12      2       30      20      
7       10      12      14      12      3       29      27      26      
1       8       18      7       12      3       30      28      25      
10      17      18      11      6       2       28      23      
3       16      18      14      10      1       20      
3       17      18      13      11      3       29      28      27      
1       17      18      14      12      3       30      28      27      
8       17      16      14      11      1       23      
1       17      12      14      12      1       24      
1       14      8       14      11      1       27      
1       17      18      7       9       1       29      
5       17      18      14      12      1       28      
1       15      18      14      7       1       32      
7       17      18      10      12      1       32      
3       17      9       12      12      1       32      
6       17      17      14      7       1       32      
10      17      12      9       12      1       32      
0       0       0       0       0       0       
